NAME : instances/clustered-mixed-tsp/instance-49.tsp
COMMENT : No Comment
TYPE : TSP
DIMENSION: 44
EDGE_WEIGHT_TYPE : EUC_2D
NODE_COORD_SECTION
1 826 1006 
2 692 1048 
3 512 1113 
4 721 1056 
5 675 190 
6 558 422 
7 269 198 
8 462 1068 
9 525 220 
10 562 382 
11 324 213 
12 348 467 
13 596 831 
14 590 210 
15 527 938 
16 747 512 
17 856 1036 
18 408 332 
19 219 233 
20 650 380 
21 791 921 
22 782 502 
23 725 270 
24 650 485 
25 646 786 
26 686 971 
27 515 310 
28 394 368 
29 722 472 
30 786 986 
31 826 991 
32 740 410 
33 249 258 
34 434 168 
35 821 946 
36 632 1023 
37 697 362 
38 707 367 
39 542 527 
40 497 958 
41 637 417 
42 505 290 
43 567 557 
44 720 205 
EOF
